<instance format="XCSP3" type="CSP">
  <variables>
    <var id="F1" note="ClothingStores"> 0 1 </var>
    <var id="F2" note="Shipping"> 0 1 </var>
    <var id="F3" note="Contact us"> 0 1 </var>
    <var id="F6" note="Basic views"> 0 1 </var>
    <var id="F49" note="Database management"> 0 1 </var>
    <var id="F60" note="Demo data"> 0 1 </var>
    <var id="F72" note="User model"> 0 1 </var>
    <var id="F75" note="Account"> 0 1 </var>
    <var id="F77" note="Login"> 0 1 </var>
    <var id="F113" note="Cart"> 0 1 </var>
    <var id="F114" note="Offline payment"> 0 1 </var>
    <var id="F115" note="Online payment"> 0 1 </var>
    <var id="F141" note="Rating"> 0 1 </var>
    <var id="F142" note="Product model"> 0 1 </var>
    <var id="F143" note="Comments"> 0 1 </var>
    <var id="F144" note="List of products"> 0 1 </var>
    <var id="F145" note="Sharing system"> 0 1 </var>
    <var id="F205" note="Basic views"> 0 1 </var>
    <var id="F206" note="Comment management"> 0 1 </var>
    <var id="F207" note="Product management"> 0 1 </var>
    <var id="F208" note="User management"> 0 1 </var>
    <var id="F251" note="Shop"> 0 1 </var>
    <var id="F256" note="Product"> 0 1 </var>
    <var id="F263" note="Web management"> 0 1 </var>
    <var id="F270" note="User"> 0 1 </var>
  </variables>
  <constraints>
    <intension>
      <function>eq(F1, 1)</function>
    </intension>
    <intension>
      <function>ge(F2, F1)</function>
    </intension>
    <intension>
      <function>ge(F3, F1)</function>
    </intension>
    <intension>
      <function>eq(F6, F1)</function>
    </intension>
    <intension>
      <function>eq(F49, F1)</function>
    </intension>
    <intension>
      <function>ge(F60, F1)</function>
    </intension>
    <intension>
      <function>gt(add(sub(1, F75), F77), 0)</function>
    </intension>
    <intension>
      <function>gt(add(sub(1, F208), F72), 0)</function>
    </intension>
    <intension>
      <function>gt(add(sub(1, F206), F143), 0)</function>
    </intension>
    <intension>
      <function>ge(F251, F1)</function>
    </intension>
    <intension>
      <function>eq(F113, F251)</function>
    </intension>
    <intension>
      <function>ge(F115, F251)</function>
    </intension>
    <intension>
      <function>ge(F114, F251)</function>
    </intension>
    <intension>
      <function>ge(F141, F256)</function>
    </intension>
    <intension>
      <function>eq(F144, F256)</function>
    </intension>
    <intension>
      <function>ge(F145, F256)</function>
    </intension>
    <intension>
      <function>eq(F142, F256)</function>
    </intension>
    <intension>
      <function>ge(F143, F256)</function>
    </intension>
    <intension>
      <function>eq(F256, F1)</function>
    </intension>
    <intension>
      <function>eq(F205, F263)</function>
    </intension>
    <intension>
      <function>ge(F206, F263)</function>
    </intension>
    <intension>
      <function>ge(F207, F263)</function>
    </intension>
    <intension>
      <function>ge(F208, F263)</function>
    </intension>
    <intension>
      <function>ge(F263, F1)</function>
    </intension>
    <intension>
      <function>ge(F77, F270)</function>
    </intension>
    <intension>
      <function>eq(F72, F270)</function>
    </intension>
    <intension>
      <function>ge(F75, F270)</function>
    </intension>
    <intension>
      <function>ge(F270, F1)</function>
    </intension>
  </constraints>
</instance>
